webassembly/ejemplos_dzn/folder5_json_27.dzn
TERM = { '.', 's(2)', 'in_1', 'local_0', 'local_1', 's(1)', 's(0)', 'in_0'};
null = '.';
s = 5;
n = 8;
ndeps = 2;
max_registers_sz = 4;
NR = 1;
registers = [|'local_0', 'local_1'|];
dependencies = [|'call[function_index(0)]_2', 'i32.load16_s_3', |'call[function_index(0)]_2', 'i32.load_4'|];
GET_ENUM = { GET1, GET2, GET3, GET4, GET5};
SET_ENUM = { SET1, SET2, SET3, SET4, SET5};
TEE_ENUM = { TEE1, TEE2, TEE3, TEE4, TEE5};
N = 4;
OP = { 'call[function_index(0)]_2', 'i32.load16_s_3', 'i32.load_4', 'local.get_0' };
in_ops = [2, 1, 1, 0 ];
out_ops = [1, 1, 1, 1 ];
in1 = ['in_0', 's(0)', 's(1)', '.' ];
in2 = ['in_1', '.', '.', '.' ];
in3 = ['.', '.', '.', '.' ];
out1 = ['s(0)', 's(1)', 's(2)', 'local_1' ];
out2 = ['.', '.', '.', '.' ];
out3 = ['.', '.', '.', '.' ];
comm = [false, false, false, false ];
gas = [1, 1, 1, 1 ];
sz = [1, 1, 1, 1 ];
stor = [true, false, false, false ];
lb = [ 1, 1, 1, 1 ];
ub = [ 5, 5, 5, 5 ];
startstack = [ 'in_0', 'in_1', null, null, null, null, null, null ];
endstack = [ 's(2)', null, null, null, null, null, null, null ];
